c Generated map
c Size: 15 * 15, weights in range: 1 to 10, walls: True, with ratio 0.05
c dim 3 of 4
c
p sp 225 379
c graph contains 225 nodes and 379 arcs
c
a 1 16 4
a 16 1 4
a 1 2 2
a 2 1 2
a 2 17 7
a 17 2 7
a 2 3 7
a 3 2 7
a 3 18 2
a 18 3 2
a 3 4 1
a 4 3 1
a 4 19 9
a 19 4 9
a 4 5 10
a 5 4 10
a 5 20 9
a 20 5 9
a 5 6 1
a 6 5 1
a 6 7 9
a 7 6 9
a 7 22 6
a 22 7 6
a 7 8 1
a 8 7 1
a 8 23 4
a 23 8 4
a 8 9 10
a 9 8 10
a 9 10 4
a 10 9 4
a 10 25 10
a 25 10 10
a 10 11 10
a 11 10 10
a 11 26 3
a 26 11 3
a 11 12 10
a 12 11 10
a 12 27 2
a 27 12 2
a 12 13 5
a 13 12 5
a 13 28 8
a 28 13 8
a 13 14 4
a 14 13 4
a 14 29 1
a 29 14 1
a 14 15 1
a 15 14 1
a 15 30 9
a 30 15 9
a 16 31 7
a 31 16 7
a 16 17 3
a 17 16 3
a 17 32 5
a 32 17 5
a 17 18 6
a 18 17 6
a 18 33 1
a 33 18 1
a 18 19 1
a 19 18 1
a 19 34 4
a 34 19 4
a 19 20 10
a 20 19 10
a 20 35 8
a 35 20 8
a 22 37 6
a 37 22 6
a 22 23 7
a 23 22 7
a 23 38 1
a 38 23 1
a 25 40 7
a 40 25 7
a 25 26 7
a 26 25 7
a 26 41 5
a 41 26 5
a 26 27 7
a 27 26 7
a 27 42 5
a 42 27 5
a 27 28 5
a 28 27 5
a 28 43 3
a 43 28 3
a 28 29 2
a 29 28 2
a 29 30 9
a 30 29 9
a 30 45 1
a 45 30 1
a 31 46 3
a 46 31 3
a 31 32 3
a 32 31 3
a 32 47 3
a 47 32 3
a 32 33 6
a 33 32 6
a 33 48 8
a 48 33 8
a 33 34 3
a 34 33 3
a 34 49 8
a 49 34 8
a 34 35 7
a 35 34 7
a 35 50 4
a 50 35 4
a 35 36 3
a 36 35 3
a 36 51 2
a 51 36 2
a 36 37 7
a 37 36 7
a 37 52 8
a 52 37 8
a 37 38 8
a 38 37 8
a 38 53 9
a 53 38 9
a 38 39 1
a 39 38 1
a 39 54 7
a 54 39 7
a 39 40 4
a 40 39 4
a 40 55 7
a 55 40 7
a 40 41 9
a 41 40 9
a 41 56 5
a 56 41 5
a 41 42 7
a 42 41 7
a 42 57 6
a 57 42 6
a 42 43 1
a 43 42 1
a 43 58 9
a 58 43 9
a 45 60 4
a 60 45 4
a 46 61 9
a 61 46 9
a 46 47 10
a 47 46 10
a 47 62 5
a 62 47 5
a 47 48 7
a 48 47 7
a 48 63 8
a 63 48 8
a 48 49 5
a 49 48 5
a 49 64 1
a 64 49 1
a 49 50 5
a 50 49 5
a 50 65 10
a 65 50 10
a 50 51 5
a 51 50 5
a 51 66 2
a 66 51 2
a 51 52 6
a 52 51 6
a 52 67 3
a 67 52 3
a 52 53 5
a 53 52 5
a 53 68 5
a 68 53 5
a 53 54 7
a 54 53 7
a 54 69 3
a 69 54 3
a 54 55 7
a 55 54 7
a 55 70 10
a 70 55 10
a 55 56 5
a 56 55 5
a 56 71 2
a 71 56 2
a 56 57 7
a 57 56 7
a 57 72 9
a 72 57 9
a 57 58 7
a 58 57 7
a 58 73 9
a 73 58 9
a 58 59 6
a 59 58 6
a 59 74 5
a 74 59 5
a 59 60 8
a 60 59 8
a 60 75 5
a 75 60 5
a 61 62 6
a 62 61 6
a 62 77 9
a 77 62 9
a 62 63 2
a 63 62 2
a 63 78 5
a 78 63 5
a 63 64 3
a 64 63 3
a 64 79 3
a 79 64 3
a 64 65 5
a 65 64 5
a 65 80 6
a 80 65 6
a 65 66 8
a 66 65 8
a 66 81 3
a 81 66 3
a 66 67 3
a 67 66 3
a 67 82 3
a 82 67 3
a 67 68 4
a 68 67 4
a 68 83 3
a 83 68 3
a 68 69 7
a 69 68 7
a 69 84 10
a 84 69 10
a 69 70 7
a 70 69 7
a 70 71 9
a 71 70 9
a 71 86 6
a 86 71 6
a 71 72 5
a 72 71 5
a 72 87 7
a 87 72 7
a 72 73 3
a 73 72 3
a 73 88 2
a 88 73 2
a 73 74 8
a 74 73 8
a 74 89 1
a 89 74 1
a 74 75 5
a 75 74 5
a 75 90 1
a 90 75 1
a 77 92 4
a 92 77 4
a 77 78 6
a 78 77 6
a 78 79 2
a 79 78 2
a 79 94 5
a 94 79 5
a 79 80 1
a 80 79 1
a 80 95 2
a 95 80 2
a 80 81 9
a 81 80 9
a 81 96 3
a 96 81 3
a 81 82 8
a 82 81 8
a 82 97 10
a 97 82 10
a 82 83 6
a 83 82 6
a 83 98 3
a 98 83 3
a 83 84 7
a 84 83 7
a 84 99 5
a 99 84 5
a 86 101 7
a 101 86 7
a 86 87 4
a 87 86 4
a 87 102 8
a 102 87 8
a 87 88 3
a 88 87 3
a 88 103 3
a 103 88 3
a 88 89 8
a 89 88 8
a 89 104 9
a 104 89 9
a 89 90 4
a 90 89 4
a 90 105 5
a 105 90 5
a 91 92 1
a 92 91 1
a 92 107 8
a 107 92 8
a 94 109 9
a 109 94 9
a 94 95 1
a 95 94 1
a 95 110 8
a 110 95 8
a 95 96 6
a 96 95 6
a 96 111 8
a 111 96 8
a 96 97 2
a 97 96 2
a 97 112 7
a 112 97 7
a 97 98 10
a 98 97 10
a 98 113 1
a 113 98 1
a 98 99 8
a 99 98 8
a 99 114 10
a 114 99 10
a 99 100 4
a 100 99 4
a 100 115 5
a 115 100 5
a 100 101 7
a 101 100 7
a 101 116 5
a 116 101 5
a 101 102 4
a 102 101 4
a 102 117 7
a 117 102 7
a 102 103 1
a 103 102 1
a 103 118 3
a 118 103 3
a 103 104 9
a 104 103 9
a 104 119 7
a 119 104 7
a 104 105 5
a 105 104 5
a 105 120 7
a 120 105 7
a 107 122 5
a 122 107 5
a 107 108 7
a 108 107 7
a 108 123 7
a 123 108 7
a 108 109 2
a 109 108 2
a 109 124 8
a 124 109 8
a 109 110 1
a 110 109 1
a 110 125 4
a 125 110 4
a 110 111 4
a 111 110 4
a 111 126 1
a 126 111 1
a 111 112 9
a 112 111 9
a 112 127 4
a 127 112 4
a 112 113 1
a 113 112 1
a 113 128 6
a 128 113 6
a 113 114 3
a 114 113 3
a 114 129 9
a 129 114 9
a 114 115 1
a 115 114 1
a 115 130 4
a 130 115 4
a 115 116 10
a 116 115 10
a 116 131 6
a 131 116 6
a 116 117 1
a 117 116 1
a 117 132 3
a 132 117 3
a 117 118 9
a 118 117 9
a 118 133 6
a 133 118 6
a 118 119 7
a 119 118 7
a 119 134 10
a 134 119 10
a 119 120 5
a 120 119 5
a 120 135 7
a 135 120 7
a 121 136 3
a 136 121 3
a 121 122 2
a 122 121 2
a 122 137 7
a 137 122 7
a 122 123 5
a 123 122 5
a 123 138 10
a 138 123 10
a 123 124 4
a 124 123 4
a 124 139 4
a 139 124 4
a 124 125 4
a 125 124 4
a 125 140 1
a 140 125 1
a 125 126 8
a 126 125 8
a 126 141 8
a 141 126 8
a 126 127 9
a 127 126 9
a 127 142 9
a 142 127 9
a 127 128 9
a 128 127 9
a 128 143 1
a 143 128 1
a 128 129 4
a 129 128 4
a 129 144 9
a 144 129 9
a 129 130 2
a 130 129 2
a 130 145 7
a 145 130 7
a 130 131 3
a 131 130 3
a 131 146 10
a 146 131 10
a 131 132 8
a 132 131 8
a 132 147 6
a 147 132 6
a 132 133 2
a 133 132 2
a 133 148 2
a 148 133 2
a 133 134 4
a 134 133 4
a 134 149 2
a 149 134 2
a 134 135 3
a 135 134 3
a 135 150 6
a 150 135 6
a 136 151 1
a 151 136 1
a 136 137 8
a 137 136 8
a 137 152 10
a 152 137 10
a 137 138 9
a 138 137 9
a 138 153 7
a 153 138 7
a 138 139 2
a 139 138 2
a 139 154 4
a 154 139 4
a 139 140 9
a 140 139 9
a 140 155 10
a 155 140 10
a 140 141 6
a 141 140 6
a 141 156 7
a 156 141 7
a 141 142 8
a 142 141 8
a 142 157 10
a 157 142 10
a 142 143 6
a 143 142 6
a 143 144 8
a 144 143 8
a 144 159 9
a 159 144 9
a 144 145 7
a 145 144 7
a 145 160 2
a 160 145 2
a 145 146 8
a 146 145 8
a 146 161 9
a 161 146 9
a 146 147 6
a 147 146 6
a 147 162 2
a 162 147 2
a 147 148 1
a 148 147 1
a 148 163 5
a 163 148 5
a 148 149 9
a 149 148 9
a 149 150 4
a 150 149 4
a 150 165 4
a 165 150 4
a 151 166 9
a 166 151 9
a 151 152 2
a 152 151 2
a 152 167 2
a 167 152 2
a 152 153 10
a 153 152 10
a 153 168 5
a 168 153 5
a 153 154 3
a 154 153 3
a 154 169 6
a 169 154 6
a 154 155 2
a 155 154 2
a 155 170 10
a 170 155 10
a 155 156 1
a 156 155 1
a 156 171 8
a 171 156 8
a 156 157 5
a 157 156 5
a 157 172 10
a 172 157 10
a 159 174 9
a 174 159 9
a 159 160 3
a 160 159 3
a 160 175 10
a 175 160 10
a 160 161 2
a 161 160 2
a 161 176 10
a 176 161 10
a 161 162 1
a 162 161 1
a 162 177 4
a 177 162 4
a 162 163 9
a 163 162 9
a 163 178 3
a 178 163 3
a 165 180 9
a 180 165 9
a 166 181 7
a 181 166 7
a 166 167 5
a 167 166 5
a 167 182 1
a 182 167 1
a 167 168 2
a 168 167 2
a 168 183 7
a 183 168 7
a 168 169 10
a 169 168 10
a 169 184 6
a 184 169 6
a 169 170 8
a 170 169 8
a 170 185 6
a 185 170 6
a 170 171 5
a 171 170 5
a 171 186 5
a 186 171 5
a 171 172 4
a 172 171 4
a 172 187 6
a 187 172 6
a 172 173 1
a 173 172 1
a 173 188 6
a 188 173 6
a 173 174 3
a 174 173 3
a 174 189 8
a 189 174 8
a 174 175 10
a 175 174 10
a 175 190 3
a 190 175 3
a 175 176 9
a 176 175 9
a 176 191 2
a 191 176 2
a 176 177 5
a 177 176 5
a 177 192 6
a 192 177 6
a 177 178 2
a 178 177 2
a 178 193 4
a 193 178 4
a 178 179 10
a 179 178 10
a 179 194 2
a 194 179 2
a 179 180 9
a 180 179 9
a 180 195 5
a 195 180 5
a 181 196 3
a 196 181 3
a 181 182 10
a 182 181 10
a 182 197 9
a 197 182 9
a 182 183 7
a 183 182 7
a 183 198 5
a 198 183 5
a 183 184 10
a 184 183 10
a 184 199 7
a 199 184 7
a 184 185 1
a 185 184 1
a 185 200 2
a 200 185 2
a 185 186 10
a 186 185 10
a 186 201 8
a 201 186 8
a 186 187 5
a 187 186 5
a 187 188 9
a 188 187 9
a 188 203 4
a 203 188 4
a 188 189 3
a 189 188 3
a 189 204 1
a 204 189 1
a 189 190 6
a 190 189 6
a 190 205 5
a 205 190 5
a 190 191 7
a 191 190 7
a 191 206 2
a 206 191 2
a 191 192 3
a 192 191 3
a 192 207 10
a 207 192 10
a 192 193 9
a 193 192 9
a 193 208 2
a 208 193 2
a 193 194 2
a 194 193 2
a 194 209 6
a 209 194 6
a 194 195 6
a 195 194 6
a 195 210 4
a 210 195 4
a 196 211 7
a 211 196 7
a 196 197 3
a 197 196 3
a 197 212 2
a 212 197 2
a 197 198 8
a 198 197 8
a 198 213 6
a 213 198 6
a 198 199 8
a 199 198 8
a 199 214 8
a 214 199 8
a 199 200 4
a 200 199 4
a 200 215 9
a 215 200 9
a 200 201 7
a 201 200 7
a 201 216 6
a 216 201 6
a 203 218 2
a 218 203 2
a 203 204 2
a 204 203 2
a 204 205 1
a 205 204 1
a 205 220 7
a 220 205 7
a 205 206 3
a 206 205 3
a 206 221 5
a 221 206 5
a 206 207 3
a 207 206 3
a 207 222 6
a 222 207 6
a 207 208 7
a 208 207 7
a 208 223 2
a 223 208 2
a 208 209 9
a 209 208 9
a 209 224 7
a 224 209 7
a 209 210 6
a 210 209 6
a 210 225 4
a 225 210 4
a 211 212 4
a 212 211 4
a 212 213 10
a 213 212 10
a 213 214 3
a 214 213 3
a 214 215 3
a 215 214 3
a 215 216 10
a 216 215 10
a 216 217 5
a 217 216 5
a 217 218 9
a 218 217 9
a 220 221 10
a 221 220 10
a 221 222 8
a 222 221 8
a 222 223 4
a 223 222 4
a 223 224 7
a 224 223 7
a 224 225 1
a 225 224 1
